c IN1002 Introduction to Algorithms!
c top secret ID string d1d3d013c32
c 12 variables and 50 clauses
p cnf 12 50
c each line is a clause, 0 marks the end
-11 4 10 0
-3 10 7 0
5 -9 -8 0
-4 -2 10 0
9 -3 0
-11 -11 -4 0
10 1 1 0
-12 -9 -8 0
-4 -9 -5 0
5 -1 -5 0
8 2 11 0
6 11 10 0
2 6 -12 0
8 -9 -2 0
7 12 12 0
-8 -12 -9 0
2 -12 4 0
-8 -12 9 0
-3 -4 12 0
4 -11 0
-12 11 -10 0
-11 6 -10 0
11 -5 8 0
12 -10 11 0
-1 12 12 0
1 -7 -10 0
4 7 -10 0
-3 11 -8 0
-7 -5 0
-5 -12 3 0
9 -9 2 0
11 -8 -5 0
-11 -10 5 0
9 -9 9 0
10 5 8 0
11 -5 -12 0
-12 -12 7 0
-8 -1 8 0
-4 4 -8 0
11 -12 -7 0
1 10 -2 0
-8 10 2 0
2 11 6 0
-4 10 10 0
-8 9 4 0
-10 7 11 0
-8 10 11 0
-11 -9 -1 0
9 2 -10 0
-12 -7 0
c Good luck!
